(set-logic LIA)
(declare-fun coord_x0 () Int)
(declare-fun coord_x1 () Int)
(declare-fun coord_x2 () Int)
(declare-fun coord_x3 () Int)
(declare-fun coord_x4 () Int)
(declare-fun coord_x5 () Int)
(declare-fun coord_x6 () Int)
(declare-fun coord_x7 () Int)
(declare-fun coord_y0 () Int)
(declare-fun coord_y1 () Int)
(declare-fun coord_y2 () Int)
(declare-fun coord_y3 () Int)
(declare-fun coord_y4 () Int)
(declare-fun coord_y5 () Int)
(declare-fun coord_y6 () Int)
(declare-fun coord_y7 () Int)
(declare-fun rot0 () Bool)
(declare-fun rot1 () Bool)
(declare-fun rot2 () Bool)
(declare-fun rot3 () Bool)
(declare-fun rot4 () Bool)
(declare-fun rot5 () Bool)
(declare-fun rot6 () Bool)
(declare-fun rot7 () Bool)
(declare-fun w_real0 () Int)
(declare-fun w_real1 () Int)
(declare-fun w_real2 () Int)
(declare-fun w_real3 () Int)
(declare-fun w_real4 () Int)
(declare-fun w_real5 () Int)
(declare-fun w_real6 () Int)
(declare-fun w_real7 () Int)
(declare-fun h_real0 () Int)
(declare-fun h_real1 () Int)
(declare-fun h_real2 () Int)
(declare-fun h_real3 () Int)
(declare-fun h_real4 () Int)
(declare-fun h_real5 () Int)
(declare-fun h_real6 () Int)
(declare-fun h_real7 () Int)
(declare-fun l () Int)
(assert (and (>= coord_x0 0) (<= coord_x0 9)))
(assert (and (>= coord_x1 0) (<= coord_x1 9)))
(assert (and (>= coord_x2 0) (<= coord_x2 9)))
(assert (and (>= coord_x3 0) (<= coord_x3 9)))
(assert (and (>= coord_x4 0) (<= coord_x4 9)))
(assert (and (>= coord_x5 0) (<= coord_x5 9)))
(assert (and (>= coord_x6 0) (<= coord_x6 9)))
(assert (and (>= coord_x7 0) (<= coord_x7 9)))
(assert (and (>= coord_y0 0) (<= coord_y0 45)))
(assert (and (>= coord_y1 0) (<= coord_y1 45)))
(assert (and (>= coord_y2 0) (<= coord_y2 45)))
(assert (and (>= coord_y3 0) (<= coord_y3 45)))
(assert (and (>= coord_y4 0) (<= coord_y4 45)))
(assert (and (>= coord_y5 0) (<= coord_y5 45)))
(assert (and (>= coord_y6 0) (<= coord_y6 45)))
(assert (and (>= coord_y7 0) (<= coord_y7 45)))
(assert (ite rot0 (= w_real0 3) (= w_real0 3)))
(assert (ite rot1 (= w_real1 4) (= w_real1 3)))
(assert (ite rot2 (= w_real2 5) (= w_real2 3)))
(assert (ite rot3 (= w_real3 6) (= w_real3 3)))
(assert (ite rot4 (= w_real4 7) (= w_real4 3)))
(assert (ite rot5 (= w_real5 8) (= w_real5 3)))
(assert (ite rot6 (= w_real6 9) (= w_real6 3)))
(assert (ite rot7 (= w_real7 3) (= w_real7 6)))
(assert (ite rot0 (= h_real0 3) (= h_real0 3)))
(assert (ite rot1 (= h_real1 3) (= h_real1 4)))
(assert (ite rot2 (= h_real2 3) (= h_real2 5)))
(assert (ite rot3 (= h_real3 3) (= h_real3 6)))
(assert (ite rot4 (= h_real4 3) (= h_real4 7)))
(assert (ite rot5 (= h_real5 3) (= h_real5 8)))
(assert (ite rot6 (= h_real6 3) (= h_real6 9)))
(assert (ite rot7 (= h_real7 6) (= h_real7 3)))
(assert (and (>= l 12) (<= l 48)))
(assert (or (<= (+ coord_x0 w_real0) coord_x1) (<= (+ coord_y0 h_real0) coord_y1) (>= (- coord_x0 w_real1) coord_x1) (>= (- coord_y0 h_real1) coord_y1)))
(assert (or (<= (+ coord_x0 w_real0) coord_x2) (<= (+ coord_y0 h_real0) coord_y2) (>= (- coord_x0 w_real2) coord_x2) (>= (- coord_y0 h_real2) coord_y2)))
(assert (or (<= (+ coord_x0 w_real0) coord_x3) (<= (+ coord_y0 h_real0) coord_y3) (>= (- coord_x0 w_real3) coord_x3) (>= (- coord_y0 h_real3) coord_y3)))
(assert (or (<= (+ coord_x0 w_real0) coord_x4) (<= (+ coord_y0 h_real0) coord_y4) (>= (- coord_x0 w_real4) coord_x4) (>= (- coord_y0 h_real4) coord_y4)))
(assert (or (<= (+ coord_x0 w_real0) coord_x5) (<= (+ coord_y0 h_real0) coord_y5) (>= (- coord_x0 w_real5) coord_x5) (>= (- coord_y0 h_real5) coord_y5)))
(assert (or (<= (+ coord_x0 w_real0) coord_x6) (<= (+ coord_y0 h_real0) coord_y6) (>= (- coord_x0 w_real6) coord_x6) (>= (- coord_y0 h_real6) coord_y6)))
(assert (or (<= (+ coord_x0 w_real0) coord_x7) (<= (+ coord_y0 h_real0) coord_y7) (>= (- coord_x0 w_real7) coord_x7) (>= (- coord_y0 h_real7) coord_y7)))
(assert (or (<= (+ coord_x1 w_real1) coord_x2) (<= (+ coord_y1 h_real1) coord_y2) (>= (- coord_x1 w_real2) coord_x2) (>= (- coord_y1 h_real2) coord_y2)))
(assert (or (<= (+ coord_x1 w_real1) coord_x3) (<= (+ coord_y1 h_real1) coord_y3) (>= (- coord_x1 w_real3) coord_x3) (>= (- coord_y1 h_real3) coord_y3)))
(assert (or (<= (+ coord_x1 w_real1) coord_x4) (<= (+ coord_y1 h_real1) coord_y4) (>= (- coord_x1 w_real4) coord_x4) (>= (- coord_y1 h_real4) coord_y4)))
(assert (or (<= (+ coord_x1 w_real1) coord_x5) (<= (+ coord_y1 h_real1) coord_y5) (>= (- coord_x1 w_real5) coord_x5) (>= (- coord_y1 h_real5) coord_y5)))
(assert (or (<= (+ coord_x1 w_real1) coord_x6) (<= (+ coord_y1 h_real1) coord_y6) (>= (- coord_x1 w_real6) coord_x6) (>= (- coord_y1 h_real6) coord_y6)))
(assert (or (<= (+ coord_x1 w_real1) coord_x7) (<= (+ coord_y1 h_real1) coord_y7) (>= (- coord_x1 w_real7) coord_x7) (>= (- coord_y1 h_real7) coord_y7)))
(assert (or (<= (+ coord_x2 w_real2) coord_x3) (<= (+ coord_y2 h_real2) coord_y3) (>= (- coord_x2 w_real3) coord_x3) (>= (- coord_y2 h_real3) coord_y3)))
(assert (or (<= (+ coord_x2 w_real2) coord_x4) (<= (+ coord_y2 h_real2) coord_y4) (>= (- coord_x2 w_real4) coord_x4) (>= (- coord_y2 h_real4) coord_y4)))
(assert (or (<= (+ coord_x2 w_real2) coord_x5) (<= (+ coord_y2 h_real2) coord_y5) (>= (- coord_x2 w_real5) coord_x5) (>= (- coord_y2 h_real5) coord_y5)))
(assert (or (<= (+ coord_x2 w_real2) coord_x6) (<= (+ coord_y2 h_real2) coord_y6) (>= (- coord_x2 w_real6) coord_x6) (>= (- coord_y2 h_real6) coord_y6)))
(assert (or (<= (+ coord_x2 w_real2) coord_x7) (<= (+ coord_y2 h_real2) coord_y7) (>= (- coord_x2 w_real7) coord_x7) (>= (- coord_y2 h_real7) coord_y7)))
(assert (or (<= (+ coord_x3 w_real3) coord_x4) (<= (+ coord_y3 h_real3) coord_y4) (>= (- coord_x3 w_real4) coord_x4) (>= (- coord_y3 h_real4) coord_y4)))
(assert (or (<= (+ coord_x3 w_real3) coord_x5) (<= (+ coord_y3 h_real3) coord_y5) (>= (- coord_x3 w_real5) coord_x5) (>= (- coord_y3 h_real5) coord_y5)))
(assert (or (<= (+ coord_x3 w_real3) coord_x6) (<= (+ coord_y3 h_real3) coord_y6) (>= (- coord_x3 w_real6) coord_x6) (>= (- coord_y3 h_real6) coord_y6)))
(assert (or (<= (+ coord_x3 w_real3) coord_x7) (<= (+ coord_y3 h_real3) coord_y7) (>= (- coord_x3 w_real7) coord_x7) (>= (- coord_y3 h_real7) coord_y7)))
(assert (or (<= (+ coord_x4 w_real4) coord_x5) (<= (+ coord_y4 h_real4) coord_y5) (>= (- coord_x4 w_real5) coord_x5) (>= (- coord_y4 h_real5) coord_y5)))
(assert (or (<= (+ coord_x4 w_real4) coord_x6) (<= (+ coord_y4 h_real4) coord_y6) (>= (- coord_x4 w_real6) coord_x6) (>= (- coord_y4 h_real6) coord_y6)))
(assert (or (<= (+ coord_x4 w_real4) coord_x7) (<= (+ coord_y4 h_real4) coord_y7) (>= (- coord_x4 w_real7) coord_x7) (>= (- coord_y4 h_real7) coord_y7)))
(assert (or (<= (+ coord_x5 w_real5) coord_x6) (<= (+ coord_y5 h_real5) coord_y6) (>= (- coord_x5 w_real6) coord_x6) (>= (- coord_y5 h_real6) coord_y6)))
(assert (or (<= (+ coord_x5 w_real5) coord_x7) (<= (+ coord_y5 h_real5) coord_y7) (>= (- coord_x5 w_real7) coord_x7) (>= (- coord_y5 h_real7) coord_y7)))
(assert (or (<= (+ coord_x6 w_real6) coord_x7) (<= (+ coord_y6 h_real6) coord_y7) (>= (- coord_x6 w_real7) coord_x7) (>= (- coord_y6 h_real7) coord_y7)))
(assert (and (<= (+ coord_x0 w_real0) 12) (<= (+ coord_y0 h_real0) l)))
(assert (and (<= (+ coord_x1 w_real1) 12) (<= (+ coord_y1 h_real1) l)))
(assert (and (<= (+ coord_x2 w_real2) 12) (<= (+ coord_y2 h_real2) l)))
(assert (and (<= (+ coord_x3 w_real3) 12) (<= (+ coord_y3 h_real3) l)))
(assert (and (<= (+ coord_x4 w_real4) 12) (<= (+ coord_y4 h_real4) l)))
(assert (and (<= (+ coord_x5 w_real5) 12) (<= (+ coord_y5 h_real5) l)))
(assert (and (<= (+ coord_x6 w_real6) 12) (<= (+ coord_y6 h_real6) l)))
(assert (and (<= (+ coord_x7 w_real7) 12) (<= (+ coord_y7 h_real7) l)))
(assert (<= (+ (ite (and (<= coord_y0 3) (< 3 (+ coord_y0 h_real0))) w_real0 0) (ite (and (<= coord_y1 3) (< 3 (+ coord_y1 h_real1))) w_real1 0) (ite (and (<= coord_y2 3) (< 3 (+ coord_y2 h_real2))) w_real2 0) (ite (and (<= coord_y3 3) (< 3 (+ coord_y3 h_real3))) w_real3 0) (ite (and (<= coord_y4 3) (< 3 (+ coord_y4 h_real4))) w_real4 0) (ite (and (<= coord_y5 3) (< 3 (+ coord_y5 h_real5))) w_real5 0) (ite (and (<= coord_y6 3) (< 3 (+ coord_y6 h_real6))) w_real6 0) (ite (and (<= coord_y7 3) (< 3 (+ coord_y7 h_real7))) w_real7 0)) 12))
(assert (<= (+ (ite (and (<= coord_y0 3) (< 3 (+ coord_y0 h_real0))) w_real0 0) (ite (and (<= coord_y1 3) (< 3 (+ coord_y1 h_real1))) w_real1 0) (ite (and (<= coord_y2 3) (< 3 (+ coord_y2 h_real2))) w_real2 0) (ite (and (<= coord_y3 3) (< 3 (+ coord_y3 h_real3))) w_real3 0) (ite (and (<= coord_y4 3) (< 3 (+ coord_y4 h_real4))) w_real4 0) (ite (and (<= coord_y5 3) (< 3 (+ coord_y5 h_real5))) w_real5 0) (ite (and (<= coord_y6 3) (< 3 (+ coord_y6 h_real6))) w_real6 0) (ite (and (<= coord_y7 3) (< 3 (+ coord_y7 h_real7))) w_real7 0)) 12))
(assert (<= (+ (ite (and (<= coord_y0 3) (< 3 (+ coord_y0 h_real0))) w_real0 0) (ite (and (<= coord_y1 3) (< 3 (+ coord_y1 h_real1))) w_real1 0) (ite (and (<= coord_y2 3) (< 3 (+ coord_y2 h_real2))) w_real2 0) (ite (and (<= coord_y3 3) (< 3 (+ coord_y3 h_real3))) w_real3 0) (ite (and (<= coord_y4 3) (< 3 (+ coord_y4 h_real4))) w_real4 0) (ite (and (<= coord_y5 3) (< 3 (+ coord_y5 h_real5))) w_real5 0) (ite (and (<= coord_y6 3) (< 3 (+ coord_y6 h_real6))) w_real6 0) (ite (and (<= coord_y7 3) (< 3 (+ coord_y7 h_real7))) w_real7 0)) 12))
(assert (<= (+ (ite (and (<= coord_y0 3) (< 3 (+ coord_y0 h_real0))) w_real0 0) (ite (and (<= coord_y1 3) (< 3 (+ coord_y1 h_real1))) w_real1 0) (ite (and (<= coord_y2 3) (< 3 (+ coord_y2 h_real2))) w_real2 0) (ite (and (<= coord_y3 3) (< 3 (+ coord_y3 h_real3))) w_real3 0) (ite (and (<= coord_y4 3) (< 3 (+ coord_y4 h_real4))) w_real4 0) (ite (and (<= coord_y5 3) (< 3 (+ coord_y5 h_real5))) w_real5 0) (ite (and (<= coord_y6 3) (< 3 (+ coord_y6 h_real6))) w_real6 0) (ite (and (<= coord_y7 3) (< 3 (+ coord_y7 h_real7))) w_real7 0)) 12))
(assert (<= (+ (ite (and (<= coord_y0 3) (< 3 (+ coord_y0 h_real0))) w_real0 0) (ite (and (<= coord_y1 3) (< 3 (+ coord_y1 h_real1))) w_real1 0) (ite (and (<= coord_y2 3) (< 3 (+ coord_y2 h_real2))) w_real2 0) (ite (and (<= coord_y3 3) (< 3 (+ coord_y3 h_real3))) w_real3 0) (ite (and (<= coord_y4 3) (< 3 (+ coord_y4 h_real4))) w_real4 0) (ite (and (<= coord_y5 3) (< 3 (+ coord_y5 h_real5))) w_real5 0) (ite (and (<= coord_y6 3) (< 3 (+ coord_y6 h_real6))) w_real6 0) (ite (and (<= coord_y7 3) (< 3 (+ coord_y7 h_real7))) w_real7 0)) 12))
(assert (<= (+ (ite (and (<= coord_y0 3) (< 3 (+ coord_y0 h_real0))) w_real0 0) (ite (and (<= coord_y1 3) (< 3 (+ coord_y1 h_real1))) w_real1 0) (ite (and (<= coord_y2 3) (< 3 (+ coord_y2 h_real2))) w_real2 0) (ite (and (<= coord_y3 3) (< 3 (+ coord_y3 h_real3))) w_real3 0) (ite (and (<= coord_y4 3) (< 3 (+ coord_y4 h_real4))) w_real4 0) (ite (and (<= coord_y5 3) (< 3 (+ coord_y5 h_real5))) w_real5 0) (ite (and (<= coord_y6 3) (< 3 (+ coord_y6 h_real6))) w_real6 0) (ite (and (<= coord_y7 3) (< 3 (+ coord_y7 h_real7))) w_real7 0)) 12))
(assert (<= (+ (ite (and (<= coord_y0 3) (< 3 (+ coord_y0 h_real0))) w_real0 0) (ite (and (<= coord_y1 3) (< 3 (+ coord_y1 h_real1))) w_real1 0) (ite (and (<= coord_y2 3) (< 3 (+ coord_y2 h_real2))) w_real2 0) (ite (and (<= coord_y3 3) (< 3 (+ coord_y3 h_real3))) w_real3 0) (ite (and (<= coord_y4 3) (< 3 (+ coord_y4 h_real4))) w_real4 0) (ite (and (<= coord_y5 3) (< 3 (+ coord_y5 h_real5))) w_real5 0) (ite (and (<= coord_y6 3) (< 3 (+ coord_y6 h_real6))) w_real6 0) (ite (and (<= coord_y7 3) (< 3 (+ coord_y7 h_real7))) w_real7 0)) 12))
(assert (<= (+ (ite (and (<= coord_y0 6) (< 6 (+ coord_y0 h_real0))) w_real0 0) (ite (and (<= coord_y1 6) (< 6 (+ coord_y1 h_real1))) w_real1 0) (ite (and (<= coord_y2 6) (< 6 (+ coord_y2 h_real2))) w_real2 0) (ite (and (<= coord_y3 6) (< 6 (+ coord_y3 h_real3))) w_real3 0) (ite (and (<= coord_y4 6) (< 6 (+ coord_y4 h_real4))) w_real4 0) (ite (and (<= coord_y5 6) (< 6 (+ coord_y5 h_real5))) w_real5 0) (ite (and (<= coord_y6 6) (< 6 (+ coord_y6 h_real6))) w_real6 0) (ite (and (<= coord_y7 6) (< 6 (+ coord_y7 h_real7))) w_real7 0)) 12))
(assert (<= (+ (ite (and (<= coord_x0 3) (< 3 (+ coord_x0 w_real0))) h_real0 0) (ite (and (<= coord_x1 3) (< 3 (+ coord_x1 w_real1))) h_real1 0) (ite (and (<= coord_x2 3) (< 3 (+ coord_x2 w_real2))) h_real2 0) (ite (and (<= coord_x3 3) (< 3 (+ coord_x3 w_real3))) h_real3 0) (ite (and (<= coord_x4 3) (< 3 (+ coord_x4 w_real4))) h_real4 0) (ite (and (<= coord_x5 3) (< 3 (+ coord_x5 w_real5))) h_real5 0) (ite (and (<= coord_x6 3) (< 3 (+ coord_x6 w_real6))) h_real6 0) (ite (and (<= coord_x7 3) (< 3 (+ coord_x7 w_real7))) h_real7 0)) l))
(assert (<= (+ (ite (and (<= coord_x0 4) (< 4 (+ coord_x0 w_real0))) h_real0 0) (ite (and (<= coord_x1 4) (< 4 (+ coord_x1 w_real1))) h_real1 0) (ite (and (<= coord_x2 4) (< 4 (+ coord_x2 w_real2))) h_real2 0) (ite (and (<= coord_x3 4) (< 4 (+ coord_x3 w_real3))) h_real3 0) (ite (and (<= coord_x4 4) (< 4 (+ coord_x4 w_real4))) h_real4 0) (ite (and (<= coord_x5 4) (< 4 (+ coord_x5 w_real5))) h_real5 0) (ite (and (<= coord_x6 4) (< 4 (+ coord_x6 w_real6))) h_real6 0) (ite (and (<= coord_x7 4) (< 4 (+ coord_x7 w_real7))) h_real7 0)) l))
(assert (<= (+ (ite (and (<= coord_x0 5) (< 5 (+ coord_x0 w_real0))) h_real0 0) (ite (and (<= coord_x1 5) (< 5 (+ coord_x1 w_real1))) h_real1 0) (ite (and (<= coord_x2 5) (< 5 (+ coord_x2 w_real2))) h_real2 0) (ite (and (<= coord_x3 5) (< 5 (+ coord_x3 w_real3))) h_real3 0) (ite (and (<= coord_x4 5) (< 5 (+ coord_x4 w_real4))) h_real4 0) (ite (and (<= coord_x5 5) (< 5 (+ coord_x5 w_real5))) h_real5 0) (ite (and (<= coord_x6 5) (< 5 (+ coord_x6 w_real6))) h_real6 0) (ite (and (<= coord_x7 5) (< 5 (+ coord_x7 w_real7))) h_real7 0)) l))
(assert (<= (+ (ite (and (<= coord_x0 6) (< 6 (+ coord_x0 w_real0))) h_real0 0) (ite (and (<= coord_x1 6) (< 6 (+ coord_x1 w_real1))) h_real1 0) (ite (and (<= coord_x2 6) (< 6 (+ coord_x2 w_real2))) h_real2 0) (ite (and (<= coord_x3 6) (< 6 (+ coord_x3 w_real3))) h_real3 0) (ite (and (<= coord_x4 6) (< 6 (+ coord_x4 w_real4))) h_real4 0) (ite (and (<= coord_x5 6) (< 6 (+ coord_x5 w_real5))) h_real5 0) (ite (and (<= coord_x6 6) (< 6 (+ coord_x6 w_real6))) h_real6 0) (ite (and (<= coord_x7 6) (< 6 (+ coord_x7 w_real7))) h_real7 0)) l))
(assert (<= (+ (ite (and (<= coord_x0 7) (< 7 (+ coord_x0 w_real0))) h_real0 0) (ite (and (<= coord_x1 7) (< 7 (+ coord_x1 w_real1))) h_real1 0) (ite (and (<= coord_x2 7) (< 7 (+ coord_x2 w_real2))) h_real2 0) (ite (and (<= coord_x3 7) (< 7 (+ coord_x3 w_real3))) h_real3 0) (ite (and (<= coord_x4 7) (< 7 (+ coord_x4 w_real4))) h_real4 0) (ite (and (<= coord_x5 7) (< 7 (+ coord_x5 w_real5))) h_real5 0) (ite (and (<= coord_x6 7) (< 7 (+ coord_x6 w_real6))) h_real6 0) (ite (and (<= coord_x7 7) (< 7 (+ coord_x7 w_real7))) h_real7 0)) l))
(assert (<= (+ (ite (and (<= coord_x0 8) (< 8 (+ coord_x0 w_real0))) h_real0 0) (ite (and (<= coord_x1 8) (< 8 (+ coord_x1 w_real1))) h_real1 0) (ite (and (<= coord_x2 8) (< 8 (+ coord_x2 w_real2))) h_real2 0) (ite (and (<= coord_x3 8) (< 8 (+ coord_x3 w_real3))) h_real3 0) (ite (and (<= coord_x4 8) (< 8 (+ coord_x4 w_real4))) h_real4 0) (ite (and (<= coord_x5 8) (< 8 (+ coord_x5 w_real5))) h_real5 0) (ite (and (<= coord_x6 8) (< 8 (+ coord_x6 w_real6))) h_real6 0) (ite (and (<= coord_x7 8) (< 8 (+ coord_x7 w_real7))) h_real7 0)) l))
(assert (<= (+ (ite (and (<= coord_x0 9) (< 9 (+ coord_x0 w_real0))) h_real0 0) (ite (and (<= coord_x1 9) (< 9 (+ coord_x1 w_real1))) h_real1 0) (ite (and (<= coord_x2 9) (< 9 (+ coord_x2 w_real2))) h_real2 0) (ite (and (<= coord_x3 9) (< 9 (+ coord_x3 w_real3))) h_real3 0) (ite (and (<= coord_x4 9) (< 9 (+ coord_x4 w_real4))) h_real4 0) (ite (and (<= coord_x5 9) (< 9 (+ coord_x5 w_real5))) h_real5 0) (ite (and (<= coord_x6 9) (< 9 (+ coord_x6 w_real6))) h_real6 0) (ite (and (<= coord_x7 9) (< 9 (+ coord_x7 w_real7))) h_real7 0)) l))
(assert (<= (+ (ite (and (<= coord_x0 3) (< 3 (+ coord_x0 w_real0))) h_real0 0) (ite (and (<= coord_x1 3) (< 3 (+ coord_x1 w_real1))) h_real1 0) (ite (and (<= coord_x2 3) (< 3 (+ coord_x2 w_real2))) h_real2 0) (ite (and (<= coord_x3 3) (< 3 (+ coord_x3 w_real3))) h_real3 0) (ite (and (<= coord_x4 3) (< 3 (+ coord_x4 w_real4))) h_real4 0) (ite (and (<= coord_x5 3) (< 3 (+ coord_x5 w_real5))) h_real5 0) (ite (and (<= coord_x6 3) (< 3 (+ coord_x6 w_real6))) h_real6 0) (ite (and (<= coord_x7 3) (< 3 (+ coord_x7 w_real7))) h_real7 0)) l))
(assert (ite (and (= 3 3) (= 3 4)) (< coord_x0 coord_x1) true))
(assert (ite (and (= 3 3) (= 3 5)) (< coord_x0 coord_x2) true))
(assert (ite (and (= 3 3) (= 3 6)) (< coord_x0 coord_x3) true))
(assert (ite (and (= 3 3) (= 3 7)) (< coord_x0 coord_x4) true))
(assert (ite (and (= 3 3) (= 3 8)) (< coord_x0 coord_x5) true))
(assert (ite (and (= 3 3) (= 3 9)) (< coord_x0 coord_x6) true))
(assert (ite (and (= 3 6) (= 3 3)) (< coord_x0 coord_x7) true))
(assert (ite (and (= 3 3) (= 4 5)) (< coord_x1 coord_x2) true))
(assert (ite (and (= 3 3) (= 4 6)) (< coord_x1 coord_x3) true))
(assert (ite (and (= 3 3) (= 4 7)) (< coord_x1 coord_x4) true))
(assert (ite (and (= 3 3) (= 4 8)) (< coord_x1 coord_x5) true))
(assert (ite (and (= 3 3) (= 4 9)) (< coord_x1 coord_x6) true))
(assert (ite (and (= 3 6) (= 4 3)) (< coord_x1 coord_x7) true))
(assert (ite (and (= 3 3) (= 5 6)) (< coord_x2 coord_x3) true))
(assert (ite (and (= 3 3) (= 5 7)) (< coord_x2 coord_x4) true))
(assert (ite (and (= 3 3) (= 5 8)) (< coord_x2 coord_x5) true))
(assert (ite (and (= 3 3) (= 5 9)) (< coord_x2 coord_x6) true))
(assert (ite (and (= 3 6) (= 5 3)) (< coord_x2 coord_x7) true))
(assert (ite (and (= 3 3) (= 6 7)) (< coord_x3 coord_x4) true))
(assert (ite (and (= 3 3) (= 6 8)) (< coord_x3 coord_x5) true))
(assert (ite (and (= 3 3) (= 6 9)) (< coord_x3 coord_x6) true))
(assert (ite (and (= 3 6) (= 6 3)) (< coord_x3 coord_x7) true))
(assert (ite (and (= 3 3) (= 7 8)) (< coord_x4 coord_x5) true))
(assert (ite (and (= 3 3) (= 7 9)) (< coord_x4 coord_x6) true))
(assert (ite (and (= 3 6) (= 7 3)) (< coord_x4 coord_x7) true))
(assert (ite (and (= 3 3) (= 8 9)) (< coord_x5 coord_x6) true))
(assert (ite (and (= 3 6) (= 8 3)) (< coord_x5 coord_x7) true))
(assert (ite (and (= 3 6) (= 9 3)) (< coord_x6 coord_x7) true))
(assert (= rot0 false))
(assert (= coord_x6 0))
(assert (= coord_y6 0))
(check-sat)
(get-value (coord_x0))
(get-value (coord_y0))
(get-value (rot0))
(get-value (coord_x1))
(get-value (coord_y1))
(get-value (rot1))
(get-value (coord_x2))
(get-value (coord_y2))
(get-value (rot2))
(get-value (coord_x3))
(get-value (coord_y3))
(get-value (rot3))
(get-value (coord_x4))
(get-value (coord_y4))
(get-value (rot4))
(get-value (coord_x5))
(get-value (coord_y5))
(get-value (rot5))
(get-value (coord_x6))
(get-value (coord_y6))
(get-value (rot6))
(get-value (coord_x7))
(get-value (coord_y7))
(get-value (rot7))
(get-value (l))
